(set-info :original "/var/folders/xz/sgqbj6yn0yv_1mpy6_jqympm0000gn/T/sea-AJuGe8/add-2-n-u.pp.ms.o.bc")
(set-info :authors "SeaHorn v.0.1.0-rc3")
(declare-rel verifier.error (Bool Bool Bool ))
(declare-rel __JVERIFIER_assert@_call (Int ))
(declare-rel __JVERIFIER_assert@_ret (Int ))
(declare-rel __JVERIFIER_assert (Bool Bool Bool Int ))
(declare-rel main@entry (Int ))
(declare-rel main@_bb (Int Int Int Int (Array Int Int) (Array Int Int) Int (Array Int Int) ))
(declare-rel main@_bb11 (Int Int (Array Int Int) (Array Int Int) Int Int (Array Int Int) ))
(declare-rel main@_bb17 (Int Int (Array Int Int) (Array Int Int) Int (Array Int Int) Int ))
(declare-rel main@_bb19 (Int Int (Array Int Int) (Array Int Int) Int (Array Int Int) Int Int ))
(declare-rel main@verifier.error.split ())
(declare-rel main@_bb13 (Int Int (Array Int Int) (Array Int Int) Int Int Int (Array Int Int) ))
(declare-rel main@_bb7 (Int Int Int Int (Array Int Int) Int (Array Int Int) Int (Array Int Int) ))
(declare-var __JVERIFIER_assert@%_call1_0 Bool )
(declare-var __JVERIFIER_assert@arg.0_0 Int )
(declare-var __JVERIFIER_assert@_call_0 Bool )
(declare-var __JVERIFIER_assert@_ret_0 Bool )
(declare-var main@%_12_0 Int )
(declare-var @__VERIFIER_nondet_uint_0 Int )
(declare-var main@%_13_0 Int )
(declare-var main@%_14_0 Int )
(declare-var main@%_15_0 Int )
(declare-var main@%_16_0 Int )
(declare-var main@%_17_0 Int )
(declare-var main@%_18_0 Int )
(declare-var main@%_19_0 Int )
(declare-var main@%_20_0 Int )
(declare-var main@%_21_0 Int )
(declare-var main@%_10_0 Bool )
(declare-var main@%_32_0 Int )
(declare-var main@%_33_0 Int )
(declare-var main@%_34_0 Int )
(declare-var main@%_35_0 Int )
(declare-var main@%_36_0 Int )
(declare-var main@%_37_0 Int )
(declare-var main@%_38_0 Int )
(declare-var main@%_39_0 Int )
(declare-var main@%_40_0 Int )
(declare-var main@%_41_0 Int )
(declare-var main@%_42_0 Int )
(declare-var main@%_43_0 Int )
(declare-var main@%_30_0 Bool )
(declare-var main@%_73_0 Bool )
(declare-var main@%_54_0 Int )
(declare-var main@%_55_0 Int )
(declare-var main@%_56_0 Int )
(declare-var main@%_57_0 Int )
(declare-var main@%_58_0 Int )
(declare-var main@%_59_0 Int )
(declare-var main@%_60_0 Int )
(declare-var main@%_61_0 Int )
(declare-var main@%_62_0 Int )
(declare-var main@%_63_0 Int )
(declare-var main@%_64_0 Int )
(declare-var main@%_65_0 Int )
(declare-var main@%_66_0 Int )
(declare-var main@%_67_0 Bool )
(declare-var main@%_69_0 Bool )
(declare-var main@%_52_0 Bool )
(declare-var main@%_49_0 Bool )
(declare-var main@%_27_0 Bool )
(declare-var main@%_7_0 Bool )
(declare-var main@%_3_0 Int )
(declare-var main@%_4_0 Int )
(declare-var main@%_5_0 Int )
(declare-var main@entry_0 Bool )
(declare-var main@%sm3_0 (Array Int Int) )
(declare-var main@%sm4_0 (Array Int Int) )
(declare-var main@%sm5_0 (Array Int Int) )
(declare-var main@%_0_0 Int )
(declare-var main@%_1_0 Int )
(declare-var main@%_2_0 Int )
(declare-var main@_bb_0 Bool )
(declare-var main@%shadow.mem.0.0_0 (Array Int Int) )
(declare-var main@%shadow.mem.4.0_0 (Array Int Int) )
(declare-var main@%.0.i_0 Int )
(declare-var main@%shadow.mem.0.0_1 (Array Int Int) )
(declare-var main@%shadow.mem.4.0_1 (Array Int Int) )
(declare-var main@%.0.i_1 Int )
(declare-var main@_bb10_0 Bool )
(declare-var main@_bb11_0 Bool )
(declare-var main@%shadow.mem.8.0_0 (Array Int Int) )
(declare-var main@%.1.i_0 Int )
(declare-var main@%shadow.mem.8.0_1 (Array Int Int) )
(declare-var main@%.1.i_1 Int )
(declare-var main@_bb6_0 Bool )
(declare-var main@_bb7_0 Bool )
(declare-var main@%shadow.mem.0.1_0 (Array Int Int) )
(declare-var main@%shadow.mem.4.1_0 (Array Int Int) )
(declare-var main@%.01.i_0 Int )
(declare-var main@%shadow.mem.0.1_1 (Array Int Int) )
(declare-var main@%shadow.mem.4.1_1 (Array Int Int) )
(declare-var main@%.01.i_1 Int )
(declare-var main@_bb16_0 Bool )
(declare-var main@_bb17_0 Bool )
(declare-var main@%.2.i_0 Int )
(declare-var main@%.2.i_1 Int )
(declare-var main@_bb12_0 Bool )
(declare-var main@_bb13_0 Bool )
(declare-var main@%shadow.mem.8.1_0 (Array Int Int) )
(declare-var main@%.12.i_0 Int )
(declare-var main@%shadow.mem.8.1_1 (Array Int Int) )
(declare-var main@%.12.i_1 Int )
(declare-var main@_bb18_0 Bool )
(declare-var main@_bb19_0 Bool )
(declare-var main@%.23.i_0 Int )
(declare-var main@%.23.i_1 Int )
(declare-var main@_bb21_0 Bool )
(declare-var main@%_72_0 Int )
(declare-var main@%.2.i_2 Int )
(declare-var main@_bb20_0 Bool )
(declare-var main@%_68_0 Int )
(declare-var main@postcall_0 Bool )
(declare-var main@%_70_0 Int )
(declare-var main@_bb19_1 Bool )
(declare-var main@%.23.i_2 Int )
(declare-var main@precall_0 Bool )
(declare-var main@__JVERIFIER_assert_0 Bool )
(declare-var main@_bb22_0 Bool )
(declare-var main@verifier.error_0 Bool )
(declare-var main@verifier.error.split_0 Bool )
(declare-var main@_bb15_0 Bool )
(declare-var main@%_46_0 Int )
(declare-var main@%.1.i_2 Int )
(declare-var main@_bb14_0 Bool )
(declare-var main@%sm2_0 (Array Int Int) )
(declare-var main@%_44_0 Int )
(declare-var main@_bb13_1 Bool )
(declare-var main@%shadow.mem.8.1_2 (Array Int Int) )
(declare-var main@%.12.i_2 Int )
(declare-var main@_bb9_0 Bool )
(declare-var main@%_24_0 Int )
(declare-var main@%.0.i_2 Int )
(declare-var main@_bb8_0 Bool )
(declare-var main@%sm_0 (Array Int Int) )
(declare-var main@%sm1_0 (Array Int Int) )
(declare-var main@%_22_0 Int )
(declare-var main@_bb7_1 Bool )
(declare-var main@%shadow.mem.0.1_2 (Array Int Int) )
(declare-var main@%shadow.mem.4.1_2 (Array Int Int) )
(declare-var main@%.01.i_2 Int )
(rule (verifier.error false false false))
(rule (verifier.error false true true))
(rule (verifier.error true false true))
(rule (verifier.error true true true))
(rule (__JVERIFIER_assert true true true __JVERIFIER_assert@arg.0_0))
(rule (__JVERIFIER_assert false true true __JVERIFIER_assert@arg.0_0))
(rule (__JVERIFIER_assert false false false __JVERIFIER_assert@arg.0_0))
(rule (__JVERIFIER_assert@_call __JVERIFIER_assert@arg.0_0))
(rule (=> (and (__JVERIFIER_assert@_call __JVERIFIER_assert@arg.0_0)
         true
         (= __JVERIFIER_assert@%_call1_0 (= __JVERIFIER_assert@arg.0_0 0))
         (not __JVERIFIER_assert@%_call1_0)
         (=> __JVERIFIER_assert@_ret_0
             (and __JVERIFIER_assert@_ret_0 __JVERIFIER_assert@_call_0))
         __JVERIFIER_assert@_ret_0)
    (__JVERIFIER_assert@_ret __JVERIFIER_assert@arg.0_0)))
(rule (=> (__JVERIFIER_assert@_ret __JVERIFIER_assert@arg.0_0)
    (__JVERIFIER_assert true false false __JVERIFIER_assert@arg.0_0)))
(rule (main@entry @__VERIFIER_nondet_uint_0))
(rule (=> (and (main@entry @__VERIFIER_nondet_uint_0)
         true
         (> main@%_0_0 0)
         (> main@%_1_0 0)
         (> main@%_2_0 0)
         (= main@%_3_0 main@%_0_0)
         (= main@%_4_0 main@%_1_0)
         (= main@%_5_0 main@%_2_0)
         (=> main@_bb_0 (and main@_bb_0 main@entry_0))
         (=> (and main@_bb_0 main@entry_0)
             (= main@%shadow.mem.0.0_0 main@%sm5_0))
         (=> (and main@_bb_0 main@entry_0)
             (= main@%shadow.mem.4.0_0 main@%sm3_0))
         (=> (and main@_bb_0 main@entry_0) (= main@%.0.i_0 0))
         (=> (and main@_bb_0 main@entry_0)
             (= main@%shadow.mem.0.0_1 main@%shadow.mem.0.0_0))
         (=> (and main@_bb_0 main@entry_0)
             (= main@%shadow.mem.4.0_1 main@%shadow.mem.4.0_0))
         (=> (and main@_bb_0 main@entry_0) (= main@%.0.i_1 main@%.0.i_0))
         main@_bb_0)
    (main@_bb @__VERIFIER_nondet_uint_0
              main@%.0.i_1
              main@%_0_0
              main@%_1_0
              main@%shadow.mem.0.0_1
              main@%shadow.mem.4.0_1
              main@%_2_0
              main@%sm4_0)))
(rule (=> (and (main@_bb @__VERIFIER_nondet_uint_0
                   main@%.0.i_0
                   main@%_0_0
                   main@%_1_0
                   main@%shadow.mem.0.0_0
                   main@%shadow.mem.4.0_0
                   main@%_2_0
                   main@%sm4_0)
         true
         (= main@%_7_0 (< main@%.0.i_0 1000))
         (=> main@_bb10_0 (and main@_bb10_0 main@_bb_0))
         (=> (and main@_bb10_0 main@_bb_0) (not main@%_7_0))
         (=> main@_bb11_0 (and main@_bb11_0 main@_bb10_0))
         (=> (and main@_bb11_0 main@_bb10_0)
             (= main@%shadow.mem.8.0_0 main@%sm4_0))
         (=> (and main@_bb11_0 main@_bb10_0) (= main@%.1.i_0 0))
         (=> (and main@_bb11_0 main@_bb10_0)
             (= main@%shadow.mem.8.0_1 main@%shadow.mem.8.0_0))
         (=> (and main@_bb11_0 main@_bb10_0) (= main@%.1.i_1 main@%.1.i_0))
         main@_bb11_0)
    (main@_bb11 main@%_0_0
                main@%_1_0
                main@%shadow.mem.0.0_0
                main@%shadow.mem.4.0_0
                main@%.1.i_1
                main@%_2_0
                main@%shadow.mem.8.0_1)))
(rule (=> (and (main@_bb @__VERIFIER_nondet_uint_0
                   main@%.0.i_0
                   main@%_0_0
                   main@%_1_0
                   main@%shadow.mem.0.0_0
                   main@%shadow.mem.4.0_0
                   main@%_2_0
                   main@%sm4_0)
         true
         (= main@%_7_0 (< main@%.0.i_0 1000))
         (=> main@_bb6_0 (and main@_bb6_0 main@_bb_0))
         (=> (and main@_bb6_0 main@_bb_0) main@%_7_0)
         (=> main@_bb7_0 (and main@_bb7_0 main@_bb6_0))
         (=> (and main@_bb7_0 main@_bb6_0)
             (= main@%shadow.mem.0.1_0 main@%shadow.mem.0.0_0))
         (=> (and main@_bb7_0 main@_bb6_0)
             (= main@%shadow.mem.4.1_0 main@%shadow.mem.4.0_0))
         (=> (and main@_bb7_0 main@_bb6_0) (= main@%.01.i_0 0))
         (=> (and main@_bb7_0 main@_bb6_0)
             (= main@%shadow.mem.0.1_1 main@%shadow.mem.0.1_0))
         (=> (and main@_bb7_0 main@_bb6_0)
             (= main@%shadow.mem.4.1_1 main@%shadow.mem.4.1_0))
         (=> (and main@_bb7_0 main@_bb6_0) (= main@%.01.i_1 main@%.01.i_0))
         main@_bb7_0)
    (main@_bb7 @__VERIFIER_nondet_uint_0
               main@%.0.i_0
               main@%_0_0
               main@%.01.i_1
               main@%shadow.mem.0.1_1
               main@%_1_0
               main@%shadow.mem.4.1_1
               main@%_2_0
               main@%sm4_0)))
(rule (=> (and (main@_bb11 main@%_0_0
                     main@%_1_0
                     main@%shadow.mem.0.0_0
                     main@%shadow.mem.4.0_0
                     main@%.1.i_0
                     main@%_2_0
                     main@%shadow.mem.8.0_0)
         true
         (= main@%_27_0 (< main@%.1.i_0 1000))
         (=> main@_bb16_0 (and main@_bb16_0 main@_bb11_0))
         (=> (and main@_bb16_0 main@_bb11_0) (not main@%_27_0))
         (=> main@_bb17_0 (and main@_bb17_0 main@_bb16_0))
         (=> (and main@_bb17_0 main@_bb16_0) (= main@%.2.i_0 0))
         (=> (and main@_bb17_0 main@_bb16_0) (= main@%.2.i_1 main@%.2.i_0))
         main@_bb17_0)
    (main@_bb17 main@%_0_0
                main@%_1_0
                main@%shadow.mem.0.0_0
                main@%shadow.mem.4.0_0
                main@%_2_0
                main@%shadow.mem.8.0_0
                main@%.2.i_1)))
(rule (=> (and (main@_bb11 main@%_0_0
                     main@%_1_0
                     main@%shadow.mem.0.0_0
                     main@%shadow.mem.4.0_0
                     main@%.1.i_0
                     main@%_2_0
                     main@%shadow.mem.8.0_0)
         true
         (= main@%_27_0 (< main@%.1.i_0 1000))
         (=> main@_bb12_0 (and main@_bb12_0 main@_bb11_0))
         (=> (and main@_bb12_0 main@_bb11_0) main@%_27_0)
         (=> main@_bb13_0 (and main@_bb13_0 main@_bb12_0))
         (=> (and main@_bb13_0 main@_bb12_0)
             (= main@%shadow.mem.8.1_0 main@%shadow.mem.8.0_0))
         (=> (and main@_bb13_0 main@_bb12_0) (= main@%.12.i_0 0))
         (=> (and main@_bb13_0 main@_bb12_0)
             (= main@%shadow.mem.8.1_1 main@%shadow.mem.8.1_0))
         (=> (and main@_bb13_0 main@_bb12_0) (= main@%.12.i_1 main@%.12.i_0))
         main@_bb13_0)
    (main@_bb13 main@%_0_0
                main@%_1_0
                main@%shadow.mem.0.0_0
                main@%shadow.mem.4.0_0
                main@%.1.i_0
                main@%.12.i_1
                main@%_2_0
                main@%shadow.mem.8.1_1)))
(rule (=> (and (main@_bb17 main@%_0_0
                     main@%_1_0
                     main@%shadow.mem.0.0_0
                     main@%shadow.mem.4.0_0
                     main@%_2_0
                     main@%shadow.mem.8.0_0
                     main@%.2.i_0)
         true
         (= main@%_49_0 (< main@%.2.i_0 1000))
         main@%_49_0
         (=> main@_bb18_0 (and main@_bb18_0 main@_bb17_0))
         (=> main@_bb19_0 (and main@_bb19_0 main@_bb18_0))
         (=> (and main@_bb19_0 main@_bb18_0) (= main@%.23.i_0 0))
         (=> (and main@_bb19_0 main@_bb18_0) (= main@%.23.i_1 main@%.23.i_0))
         main@_bb19_0)
    (main@_bb19 main@%_0_0
                main@%_1_0
                main@%shadow.mem.0.0_0
                main@%shadow.mem.4.0_0
                main@%_2_0
                main@%shadow.mem.8.0_0
                main@%.23.i_1
                main@%.2.i_0)))
(rule (let ((a!1 (and (main@_bb19 main@%_0_0
                            main@%_1_0
                            main@%shadow.mem.0.0_0
                            main@%shadow.mem.4.0_0
                            main@%_2_0
                            main@%shadow.mem.8.0_0
                            main@%.23.i_0
                            main@%.2.i_0)
                true
                (= main@%_52_0 (< main@%.23.i_0 1500))
                (=> main@_bb21_0 (and main@_bb21_0 main@_bb19_0))
                (=> (and main@_bb21_0 main@_bb19_0) (not main@%_52_0))
                (=> main@_bb21_0 (= main@%_72_0 (+ main@%.2.i_0 1)))
                (=> main@_bb17_0 (and main@_bb17_0 main@_bb21_0))
                (=> (and main@_bb17_0 main@_bb21_0)
                    (= main@%.2.i_1 main@%_72_0))
                (=> (and main@_bb17_0 main@_bb21_0)
                    (= main@%.2.i_2 main@%.2.i_1))
                main@_bb17_0)))
  (=> a!1
      (main@_bb17 main@%_0_0
                  main@%_1_0
                  main@%shadow.mem.0.0_0
                  main@%shadow.mem.4.0_0
                  main@%_2_0
                  main@%shadow.mem.8.0_0
                  main@%.2.i_2))))
(rule (let ((a!1 (=> main@_bb20_0
               (= main@%_55_0 (+ main@%_2_0 (* 0 6000000) (* main@%_54_0 4)))))
      (a!2 (=> main@_bb20_0 (= main@%_56_0 (+ main@%_55_0 (* main@%.23.i_0 4)))))
      (a!3 (=> main@_bb20_0
               (= main@%_59_0 (+ main@%_0_0 (* 0 6000000) (* main@%_58_0 4)))))
      (a!4 (=> main@_bb20_0 (= main@%_60_0 (+ main@%_59_0 (* main@%.23.i_0 4)))))
      (a!5 (=> main@_bb20_0
               (= main@%_63_0 (+ main@%_1_0 (* 0 6000000) (* main@%_62_0 4)))))
      (a!6 (=> main@_bb20_0 (= main@%_64_0 (+ main@%_63_0 (* main@%.23.i_0 4))))))
(let ((a!7 (and (main@_bb19 main@%_0_0
                            main@%_1_0
                            main@%shadow.mem.0.0_0
                            main@%shadow.mem.4.0_0
                            main@%_2_0
                            main@%shadow.mem.8.0_0
                            main@%.23.i_0
                            main@%.2.i_0)
                true
                (= main@%_52_0 (< main@%.23.i_0 1500))
                (=> main@_bb20_0 (and main@_bb20_0 main@_bb19_0))
                (=> (and main@_bb20_0 main@_bb19_0) main@%_52_0)
                (=> main@_bb20_0 (= main@%_54_0 (* main@%.2.i_0 1500)))
                a!1
                (=> main@_bb20_0 (or (<= main@%_2_0 0) (> main@%_55_0 0)))
                a!2
                (=> main@_bb20_0 (or (<= main@%_55_0 0) (> main@%_56_0 0)))
                (=> main@_bb20_0 (> main@%_55_0 0))
                (=> main@_bb20_0
                    (= main@%_57_0 (select main@%shadow.mem.8.0_0 main@%_56_0)))
                (=> main@_bb20_0 (= main@%_58_0 (* main@%.2.i_0 1500)))
                a!3
                (=> main@_bb20_0 (or (<= main@%_0_0 0) (> main@%_59_0 0)))
                a!4
                (=> main@_bb20_0 (or (<= main@%_59_0 0) (> main@%_60_0 0)))
                (=> main@_bb20_0 (> main@%_59_0 0))
                (=> main@_bb20_0
                    (= main@%_61_0 (select main@%shadow.mem.0.0_0 main@%_60_0)))
                (=> main@_bb20_0 (= main@%_62_0 (* main@%.2.i_0 1500)))
                a!5
                (=> main@_bb20_0 (or (<= main@%_1_0 0) (> main@%_63_0 0)))
                a!6
                (=> main@_bb20_0 (or (<= main@%_63_0 0) (> main@%_64_0 0)))
                (=> main@_bb20_0 (> main@%_63_0 0))
                (=> main@_bb20_0
                    (= main@%_65_0 (select main@%shadow.mem.4.0_0 main@%_64_0)))
                (=> main@_bb20_0 (= main@%_66_0 (+ main@%_61_0 main@%_65_0)))
                (=> main@_bb20_0 (= main@%_67_0 (= main@%_57_0 main@%_66_0)))
                (=> main@_bb20_0 (= main@%_68_0 (ite main@%_67_0 1 0)))
                (=> main@postcall_0 (and main@postcall_0 main@_bb20_0))
                (=> (and main@postcall_0 main@_bb20_0) main@%_69_0)
                (__JVERIFIER_assert main@postcall_0 false false main@%_68_0)
                (=> main@postcall_0 (= main@%_70_0 (+ main@%.23.i_0 1)))
                (=> main@_bb19_1 (and main@_bb19_1 main@postcall_0))
                (=> (and main@_bb19_1 main@postcall_0)
                    (= main@%.23.i_1 main@%_70_0))
                (=> (and main@_bb19_1 main@postcall_0)
                    (= main@%.23.i_2 main@%.23.i_1))
                main@_bb19_1)))
  (=> a!7
      (main@_bb19 main@%_0_0
                  main@%_1_0
                  main@%shadow.mem.0.0_0
                  main@%shadow.mem.4.0_0
                  main@%_2_0
                  main@%shadow.mem.8.0_0
                  main@%.23.i_2
                  main@%.2.i_0)))))
(rule (let ((a!1 (=> main@_bb20_0
               (= main@%_55_0 (+ main@%_2_0 (* 0 6000000) (* main@%_54_0 4)))))
      (a!2 (=> main@_bb20_0 (= main@%_56_0 (+ main@%_55_0 (* main@%.23.i_0 4)))))
      (a!3 (=> main@_bb20_0
               (= main@%_59_0 (+ main@%_0_0 (* 0 6000000) (* main@%_58_0 4)))))
      (a!4 (=> main@_bb20_0 (= main@%_60_0 (+ main@%_59_0 (* main@%.23.i_0 4)))))
      (a!5 (=> main@_bb20_0
               (= main@%_63_0 (+ main@%_1_0 (* 0 6000000) (* main@%_62_0 4)))))
      (a!6 (=> main@_bb20_0 (= main@%_64_0 (+ main@%_63_0 (* main@%.23.i_0 4))))))
(let ((a!7 (and (main@_bb19 main@%_0_0
                            main@%_1_0
                            main@%shadow.mem.0.0_0
                            main@%shadow.mem.4.0_0
                            main@%_2_0
                            main@%shadow.mem.8.0_0
                            main@%.23.i_0
                            main@%.2.i_0)
                true
                (= main@%_52_0 (< main@%.23.i_0 1500))
                (=> main@_bb20_0 (and main@_bb20_0 main@_bb19_0))
                (=> (and main@_bb20_0 main@_bb19_0) main@%_52_0)
                (=> main@_bb20_0 (= main@%_54_0 (* main@%.2.i_0 1500)))
                a!1
                (=> main@_bb20_0 (or (<= main@%_2_0 0) (> main@%_55_0 0)))
                a!2
                (=> main@_bb20_0 (or (<= main@%_55_0 0) (> main@%_56_0 0)))
                (=> main@_bb20_0 (> main@%_55_0 0))
                (=> main@_bb20_0
                    (= main@%_57_0 (select main@%shadow.mem.8.0_0 main@%_56_0)))
                (=> main@_bb20_0 (= main@%_58_0 (* main@%.2.i_0 1500)))
                a!3
                (=> main@_bb20_0 (or (<= main@%_0_0 0) (> main@%_59_0 0)))
                a!4
                (=> main@_bb20_0 (or (<= main@%_59_0 0) (> main@%_60_0 0)))
                (=> main@_bb20_0 (> main@%_59_0 0))
                (=> main@_bb20_0
                    (= main@%_61_0 (select main@%shadow.mem.0.0_0 main@%_60_0)))
                (=> main@_bb20_0 (= main@%_62_0 (* main@%.2.i_0 1500)))
                a!5
                (=> main@_bb20_0 (or (<= main@%_1_0 0) (> main@%_63_0 0)))
                a!6
                (=> main@_bb20_0 (or (<= main@%_63_0 0) (> main@%_64_0 0)))
                (=> main@_bb20_0 (> main@%_63_0 0))
                (=> main@_bb20_0
                    (= main@%_65_0 (select main@%shadow.mem.4.0_0 main@%_64_0)))
                (=> main@_bb20_0 (= main@%_66_0 (+ main@%_61_0 main@%_65_0)))
                (=> main@_bb20_0 (= main@%_67_0 (= main@%_57_0 main@%_66_0)))
                (=> main@_bb20_0 (= main@%_68_0 (ite main@%_67_0 1 0)))
                (=> main@precall_0 (and main@precall_0 main@_bb20_0))
                (=> (and main@precall_0 main@_bb20_0) (not main@%_69_0))
                (=> main@__JVERIFIER_assert_0
                    (and main@__JVERIFIER_assert_0 main@precall_0))
                (=> main@__JVERIFIER_assert_0 (= main@%_73_0 (= main@%_68_0 0)))
                (=> main@__JVERIFIER_assert_0 main@%_73_0)
                (=> main@_bb22_0 (and main@_bb22_0 main@__JVERIFIER_assert_0))
                (=> main@verifier.error_0
                    (and main@verifier.error_0 main@_bb22_0))
                (=> main@verifier.error.split_0
                    (and main@verifier.error.split_0 main@verifier.error_0))
                main@verifier.error.split_0)))
  (=> a!7 main@verifier.error.split))))
(rule (let ((a!1 (and (main@_bb13 main@%_0_0
                            main@%_1_0
                            main@%shadow.mem.0.0_0
                            main@%shadow.mem.4.0_0
                            main@%.1.i_0
                            main@%.12.i_0
                            main@%_2_0
                            main@%shadow.mem.8.1_0)
                true
                (= main@%_30_0 (< main@%.12.i_0 1500))
                (=> main@_bb15_0 (and main@_bb15_0 main@_bb13_0))
                (=> (and main@_bb15_0 main@_bb13_0) (not main@%_30_0))
                (=> main@_bb15_0 (= main@%_46_0 (+ main@%.1.i_0 1)))
                (=> main@_bb11_0 (and main@_bb11_0 main@_bb15_0))
                (=> (and main@_bb11_0 main@_bb15_0)
                    (= main@%shadow.mem.8.0_0 main@%shadow.mem.8.1_0))
                (=> (and main@_bb11_0 main@_bb15_0)
                    (= main@%.1.i_1 main@%_46_0))
                (=> (and main@_bb11_0 main@_bb15_0)
                    (= main@%shadow.mem.8.0_1 main@%shadow.mem.8.0_0))
                (=> (and main@_bb11_0 main@_bb15_0)
                    (= main@%.1.i_2 main@%.1.i_1))
                main@_bb11_0)))
  (=> a!1
      (main@_bb11 main@%_0_0
                  main@%_1_0
                  main@%shadow.mem.0.0_0
                  main@%shadow.mem.4.0_0
                  main@%.1.i_2
                  main@%_2_0
                  main@%shadow.mem.8.0_1))))
(rule (let ((a!1 (=> main@_bb14_0
               (= main@%_33_0 (+ main@%_0_0 (* 0 6000000) (* main@%_32_0 4)))))
      (a!2 (=> main@_bb14_0 (= main@%_34_0 (+ main@%_33_0 (* main@%.12.i_0 4)))))
      (a!3 (=> main@_bb14_0
               (= main@%_37_0 (+ main@%_1_0 (* 0 6000000) (* main@%_36_0 4)))))
      (a!4 (=> main@_bb14_0 (= main@%_38_0 (+ main@%_37_0 (* main@%.12.i_0 4)))))
      (a!5 (=> main@_bb14_0
               (= main@%_42_0 (+ main@%_2_0 (* 0 6000000) (* main@%_41_0 4)))))
      (a!6 (=> main@_bb14_0 (= main@%_43_0 (+ main@%_42_0 (* main@%.12.i_0 4))))))
(let ((a!7 (and (main@_bb13 main@%_0_0
                            main@%_1_0
                            main@%shadow.mem.0.0_0
                            main@%shadow.mem.4.0_0
                            main@%.1.i_0
                            main@%.12.i_0
                            main@%_2_0
                            main@%shadow.mem.8.1_0)
                true
                (= main@%_30_0 (< main@%.12.i_0 1500))
                (=> main@_bb14_0 (and main@_bb14_0 main@_bb13_0))
                (=> (and main@_bb14_0 main@_bb13_0) main@%_30_0)
                (=> main@_bb14_0 (= main@%_32_0 (* main@%.1.i_0 1500)))
                a!1
                (=> main@_bb14_0 (or (<= main@%_0_0 0) (> main@%_33_0 0)))
                a!2
                (=> main@_bb14_0 (or (<= main@%_33_0 0) (> main@%_34_0 0)))
                (=> main@_bb14_0 (> main@%_33_0 0))
                (=> main@_bb14_0
                    (= main@%_35_0 (select main@%shadow.mem.0.0_0 main@%_34_0)))
                (=> main@_bb14_0 (= main@%_36_0 (* main@%.1.i_0 1500)))
                a!3
                (=> main@_bb14_0 (or (<= main@%_1_0 0) (> main@%_37_0 0)))
                a!4
                (=> main@_bb14_0 (or (<= main@%_37_0 0) (> main@%_38_0 0)))
                (=> main@_bb14_0 (> main@%_37_0 0))
                (=> main@_bb14_0
                    (= main@%_39_0 (select main@%shadow.mem.4.0_0 main@%_38_0)))
                (=> main@_bb14_0 (= main@%_40_0 (+ main@%_35_0 main@%_39_0)))
                (=> main@_bb14_0 (= main@%_41_0 (* main@%.1.i_0 1500)))
                a!5
                (=> main@_bb14_0 (or (<= main@%_2_0 0) (> main@%_42_0 0)))
                a!6
                (=> main@_bb14_0 (or (<= main@%_42_0 0) (> main@%_43_0 0)))
                (=> main@_bb14_0 (> main@%_42_0 0))
                (=> main@_bb14_0
                    (= main@%sm2_0
                       (store main@%shadow.mem.8.1_0 main@%_43_0 main@%_40_0)))
                (=> main@_bb14_0 (= main@%_44_0 (+ main@%.12.i_0 1)))
                (=> main@_bb13_1 (and main@_bb13_1 main@_bb14_0))
                (=> (and main@_bb13_1 main@_bb14_0)
                    (= main@%shadow.mem.8.1_1 main@%sm2_0))
                (=> (and main@_bb13_1 main@_bb14_0)
                    (= main@%.12.i_1 main@%_44_0))
                (=> (and main@_bb13_1 main@_bb14_0)
                    (= main@%shadow.mem.8.1_2 main@%shadow.mem.8.1_1))
                (=> (and main@_bb13_1 main@_bb14_0)
                    (= main@%.12.i_2 main@%.12.i_1))
                main@_bb13_1)))
  (=> a!7
      (main@_bb13 main@%_0_0
                  main@%_1_0
                  main@%shadow.mem.0.0_0
                  main@%shadow.mem.4.0_0
                  main@%.1.i_0
                  main@%.12.i_2
                  main@%_2_0
                  main@%shadow.mem.8.1_2)))))
(rule (let ((a!1 (and (main@_bb7 @__VERIFIER_nondet_uint_0
                           main@%.0.i_0
                           main@%_0_0
                           main@%.01.i_0
                           main@%shadow.mem.0.1_0
                           main@%_1_0
                           main@%shadow.mem.4.1_0
                           main@%_2_0
                           main@%sm4_0)
                true
                (= main@%_10_0 (< main@%.01.i_0 1500))
                (=> main@_bb9_0 (and main@_bb9_0 main@_bb7_0))
                (=> (and main@_bb9_0 main@_bb7_0) (not main@%_10_0))
                (=> main@_bb9_0 (= main@%_24_0 (+ main@%.0.i_0 1)))
                (=> main@_bb_0 (and main@_bb_0 main@_bb9_0))
                (=> (and main@_bb_0 main@_bb9_0)
                    (= main@%shadow.mem.0.0_0 main@%shadow.mem.0.1_0))
                (=> (and main@_bb_0 main@_bb9_0)
                    (= main@%shadow.mem.4.0_0 main@%shadow.mem.4.1_0))
                (=> (and main@_bb_0 main@_bb9_0) (= main@%.0.i_1 main@%_24_0))
                (=> (and main@_bb_0 main@_bb9_0)
                    (= main@%shadow.mem.0.0_1 main@%shadow.mem.0.0_0))
                (=> (and main@_bb_0 main@_bb9_0)
                    (= main@%shadow.mem.4.0_1 main@%shadow.mem.4.0_0))
                (=> (and main@_bb_0 main@_bb9_0) (= main@%.0.i_2 main@%.0.i_1))
                main@_bb_0)))
  (=> a!1
      (main@_bb @__VERIFIER_nondet_uint_0
                main@%.0.i_2
                main@%_0_0
                main@%_1_0
                main@%shadow.mem.0.0_1
                main@%shadow.mem.4.0_1
                main@%_2_0
                main@%sm4_0))))
(rule (let ((a!1 (=> main@_bb8_0
               (= main@%_15_0 (+ main@%_0_0 (* 0 6000000) (* main@%_14_0 4)))))
      (a!2 (=> main@_bb8_0 (= main@%_16_0 (+ main@%_15_0 (* main@%.01.i_0 4)))))
      (a!3 (=> main@_bb8_0
               (= main@%_20_0 (+ main@%_1_0 (* 0 6000000) (* main@%_19_0 4)))))
      (a!4 (=> main@_bb8_0 (= main@%_21_0 (+ main@%_20_0 (* main@%.01.i_0 4))))))
(let ((a!5 (and (main@_bb7 @__VERIFIER_nondet_uint_0
                           main@%.0.i_0
                           main@%_0_0
                           main@%.01.i_0
                           main@%shadow.mem.0.1_0
                           main@%_1_0
                           main@%shadow.mem.4.1_0
                           main@%_2_0
                           main@%sm4_0)
                true
                (= main@%_10_0 (< main@%.01.i_0 1500))
                (=> main@_bb8_0 (and main@_bb8_0 main@_bb7_0))
                (=> (and main@_bb8_0 main@_bb7_0) main@%_10_0)
                (=> main@_bb8_0 (= main@%_12_0 @__VERIFIER_nondet_uint_0))
                (=> main@_bb8_0 (= main@%_14_0 (* main@%.0.i_0 1500)))
                a!1
                (=> main@_bb8_0 (or (<= main@%_0_0 0) (> main@%_15_0 0)))
                a!2
                (=> main@_bb8_0 (or (<= main@%_15_0 0) (> main@%_16_0 0)))
                (=> main@_bb8_0 (> main@%_15_0 0))
                (=> main@_bb8_0
                    (= main@%sm_0
                       (store main@%shadow.mem.0.1_0 main@%_16_0 main@%_13_0)))
                (=> main@_bb8_0 (= main@%_17_0 @__VERIFIER_nondet_uint_0))
                (=> main@_bb8_0 (= main@%_19_0 (* main@%.0.i_0 1500)))
                a!3
                (=> main@_bb8_0 (or (<= main@%_1_0 0) (> main@%_20_0 0)))
                a!4
                (=> main@_bb8_0 (or (<= main@%_20_0 0) (> main@%_21_0 0)))
                (=> main@_bb8_0 (> main@%_20_0 0))
                (=> main@_bb8_0
                    (= main@%sm1_0
                       (store main@%shadow.mem.4.1_0 main@%_21_0 main@%_18_0)))
                (=> main@_bb8_0 (= main@%_22_0 (+ main@%.01.i_0 1)))
                (=> main@_bb7_1 (and main@_bb7_1 main@_bb8_0))
                (=> (and main@_bb7_1 main@_bb8_0)
                    (= main@%shadow.mem.0.1_1 main@%sm_0))
                (=> (and main@_bb7_1 main@_bb8_0)
                    (= main@%shadow.mem.4.1_1 main@%sm1_0))
                (=> (and main@_bb7_1 main@_bb8_0) (= main@%.01.i_1 main@%_22_0))
                (=> (and main@_bb7_1 main@_bb8_0)
                    (= main@%shadow.mem.0.1_2 main@%shadow.mem.0.1_1))
                (=> (and main@_bb7_1 main@_bb8_0)
                    (= main@%shadow.mem.4.1_2 main@%shadow.mem.4.1_1))
                (=> (and main@_bb7_1 main@_bb8_0)
                    (= main@%.01.i_2 main@%.01.i_1))
                main@_bb7_1)))
  (=> a!5
      (main@_bb7 @__VERIFIER_nondet_uint_0
                 main@%.0.i_0
                 main@%_0_0
                 main@%.01.i_2
                 main@%shadow.mem.0.1_2
                 main@%_1_0
                 main@%shadow.mem.4.1_2
                 main@%_2_0
                 main@%sm4_0)))))
(query main@verifier.error.split)

